p cnf 891
-13 -279
-14 -282
-15 -285
-16 -288
-17 -291
-18 -294
-19 -297
-20 -300
-21 -303
-22 -306
-23 -309
-24 -312
-25 313
-26 314
-27 315
-28 316
-29 317
-30 318
-31 319
-32 320
-33 -14
-33 -15
14 15 33
-34 -16
-34 -17
16 17 34
-35 -18
-35 -19
18 19 35
-36 -20
-36 -21
20 21 36
-37 -22
-37 -23
22 23 37
-38 -24
-38 -25
24 25 38
-39 -26
-39 -27
26 27 39
-40 -28
-40 -29
28 29 40
-41 -30
-41 -31
30 31 41
-42 33
-42 34
-33 -34 42
-43 35
-43 36
-35 -36 43
-44 37
-44 38
-37 -38 44
-45 39
-45 40
-39 -40 45
-46 -32
-46 41
32 -41 46
-47 42
-47 43
-42 -43 47
-48 44
-48 45
-44 -45 48
-49 47
-49 48
-47 -48 49
-50 46
-50 49
-46 -49 50
-51 -13
-51 14
13 -14 51
-52 13
-52 -14
-13 14 52
-53 -51
-53 -52
51 52 53
-54 13
-54 14
-13 -14 54
-55 -13
-55 -53
13 53 55
-56 13
-56 53
-13 -53 56
-57 -55
-57 -56
55 56 57
-58 13
-58 -53
-13 53 58
-59 -54
-59 -58
54 58 59
-60 -14
-60 15
14 -15 60
-61 14
-61 -15
-14 15 61
-62 -60
-62 -61
60 61 62
-63 14
-63 15
-14 -15 63
-64 59
-64 -62
-59 62 64
-65 -59
-65 62
59 -62 65
-66 -64
-66 -65
64 65 66
-67 -59
-67 -62
59 62 67
-68 -63
-68 -67
63 67 68
-69 -15
-69 16
15 -16 69
-70 15
-70 -16
-15 16 70
-71 -69
-71 -70
69 70 71
-72 15
-72 16
-15 -16 72
-73 68
-73 -71
-68 71 73
-74 -68
-74 71
68 -71 74
-75 -73
-75 -74
73 74 75
-76 -68
-76 -71
68 71 76
-77 -72
-77 -76
72 76 77
-78 -16
-78 17
16 -17 78
-79 16
-79 -17
-16 17 79
-80 -78
-80 -79
78 79 80
-81 16
-81 17
-16 -17 81
-82 77
-82 -80
-77 80 82
-83 -77
-83 80
77 -80 83
-84 -82
-84 -83
82 83 84
-85 -77
-85 -80
77 80 85
-86 -81
-86 -85
81 85 86
-87 -17
-87 18
17 -18 87
-88 17
-88 -18
-17 18 88
-89 -87
-89 -88
87 88 89
-90 17
-90 18
-17 -18 90
-91 86
-91 -89
-86 89 91
-92 -86
-92 89
86 -89 92
-93 -91
-93 -92
91 92 93
-94 -86
-94 -89
86 89 94
-95 -90
-95 -94
90 94 95
-96 -18
-96 19
18 -19 96
-97 18
-97 -19
-18 19 97
-98 -96
-98 -97
96 97 98
-99 18
-99 19
-18 -19 99
-100 95
-100 -98
-95 98 100
-101 -95
-101 98
95 -98 101
-102 -100
-102 -101
100 101 102
-103 -95
-103 -98
95 98 103
-104 -99
-104 -103
99 103 104
-105 -19
-105 20
19 -20 105
-106 19
-106 -20
-19 20 106
-107 -105
-107 -106
105 106 107
-108 19
-108 20
-19 -20 108
-109 104
-109 -107
-104 107 109
-110 -104
-110 107
104 -107 110
-111 -109
-111 -110
109 110 111
-112 -104
-112 -107
104 107 112
-113 -108
-113 -112
108 112 113
-114 -20
-114 21
20 -21 114
-115 20
-115 -21
-20 21 115
-116 -114
-116 -115
114 115 116
-117 20
-117 21
-20 -21 117
-118 113
-118 -116
-113 116 118
-119 -113
-119 116
113 -116 119
-120 -118
-120 -119
118 119 120
-121 -113
-121 -116
113 116 121
-122 -117
-122 -121
117 121 122
-123 -21
-123 22
21 -22 123
-124 21
-124 -22
-21 22 124
-125 -123
-125 -124
123 124 125
-126 21
-126 22
-21 -22 126
-127 122
-127 -125
-122 125 127
-128 -122
-128 125
122 -125 128
-129 -127
-129 -128
127 128 129
-130 -122
-130 -125
122 125 130
-131 -126
-131 -130
126 130 131
-132 -22
-132 23
22 -23 132
-133 22
-133 -23
-22 23 133
-134 -132
-134 -133
132 133 134
-135 22
-135 23
-22 -23 135
-136 131
-136 -134
-131 134 136
-137 -131
-137 134
131 -134 137
-138 -136
-138 -137
136 137 138
-139 -131
-139 -134
131 134 139
-140 -135
-140 -139
135 139 140
-141 -23
-141 24
23 -24 141
-142 23
-142 -24
-23 24 142
-143 -141
-143 -142
141 142 143
-144 23
-144 24
-23 -24 144
-145 140
-145 -143
-140 143 145
-146 -140
-146 143
140 -143 146
-147 -145
-147 -146
145 146 147
-148 -140
-148 -143
140 143 148
-149 -144
-149 -148
144 148 149
-150 -24
-150 25
24 -25 150
-151 24
-151 -25
-24 25 151
-152 -150
-152 -151
150 151 152
-153 24
-153 25
-24 -25 153
-154 149
-154 -152
-149 152 154
-155 -149
-155 152
149 -152 155
-156 -154
-156 -155
154 155 156
-157 -149
-157 -152
149 152 157
-158 -153
-158 -157
153 157 158
-159 -25
-159 26
25 -26 159
-160 25
-160 -26
-25 26 160
-161 -159
-161 -160
159 160 161
-162 25
-162 26
-25 -26 162
-163 158
-163 -161
-158 161 163
-164 -158
-164 161
158 -161 164
-165 -163
-165 -164
163 164 165
-166 -158
-166 -161
158 161 166
-167 -162
-167 -166
162 166 167
-168 -26
-168 27
26 -27 168
-169 26
-169 -27
-26 27 169
-170 -168
-170 -169
168 169 170
-171 26
-171 27
-26 -27 171
-172 167
-172 -170
-167 170 172
-173 -167
-173 170
167 -170 173
-174 -172
-174 -173
172 173 174
-175 -167
-175 -170
167 170 175
-176 -171
-176 -175
171 175 176
-177 -27
-177 28
27 -28 177
-178 27
-178 -28
-27 28 178
-179 -177
-179 -178
177 178 179
-180 27
-180 28
-27 -28 180
-181 176
-181 -179
-176 179 181
-182 -176
-182 179
176 -179 182
-183 -181
-183 -182
181 182 183
-184 -176
-184 -179
176 179 184
-185 -180
-185 -184
180 184 185
-186 -28
-186 29
28 -29 186
-187 28
-187 -29
-28 29 187
-188 -186
-188 -187
186 187 188
-189 28
-189 29
-28 -29 189
-190 185
-190 -188
-185 188 190
-191 -185
-191 188
185 -188 191
-192 -190
-192 -191
190 191 192
-193 -185
-193 -188
185 188 193
-194 -189
-194 -193
189 193 194
-195 -29
-195 30
29 -30 195
-196 29
-196 -30
-29 30 196
-197 -195
-197 -196
195 196 197
-198 29
-198 30
-29 -30 198
-199 194
-199 -197
-194 197 199
-200 -194
-200 197
194 -197 200
-201 -199
-201 -200
199 200 201
-202 -194
-202 -197
194 197 202
-203 -198
-203 -202
198 202 203
-204 -30
-204 31
30 -31 204
-205 30
-205 -31
-30 31 205
-206 -204
-206 -205
204 205 206
-207 30
-207 31
-30 -31 207
-208 203
-208 -206
-203 206 208
-209 -203
-209 206
203 -206 209
-210 -208
-210 -209
208 209 210
-211 -203
-211 -206
203 206 211
-212 -207
-212 -211
207 211 212
-213 -31
-213 32
31 -32 213
-214 31
-214 -32
-31 32 214
-215 -213
-215 -214
213 214 215
-216 31
-216 32
-31 -32 216
-217 212
-217 -215
-212 215 217
-218 -212
-218 215
212 -215 218
-219 -217
-219 -218
217 218 219
-220 -212
-220 -215
212 215 220
-221 -216
-221 -220
216 220 221
-222 13
-222 -57
-13 57 222
-223 -13
-223 15
13 -15 223
-224 -222
-224 -223
222 223 224
-225 13
-225 -66
-13 66 225
-226 -13
-226 16
13 -16 226
-227 -225
-227 -226
225 226 227
-228 13
-228 -75
-13 75 228
-229 -13
-229 17
13 -17 229
-230 -228
-230 -229
228 229 230
-231 13
-231 -84
-13 84 231
-232 -13
-232 18
13 -18 232
-233 -231
-233 -232
231 232 233
-234 13
-234 -93
-13 93 234
-235 -13
-235 19
13 -19 235
-236 -234
-236 -235
234 235 236
-237 13
-237 -102
-13 102 237
-238 -13
-238 20
13 -20 238
-239 -237
-239 -238
237 238 239
-240 13
-240 -111
-13 111 240
-241 -13
-241 21
13 -21 241
-242 -240
-242 -241
240 241 242
-243 13
-243 -120
-13 120 243
-244 -13
-244 22
13 -22 244
-245 -243
-245 -244
243 244 245
-246 13
-246 -129
-13 129 246
-247 -13
-247 23
13 -23 247
-248 -246
-248 -247
246 247 248
-249 13
-249 -138
-13 138 249
-250 -13
-250 24
13 -24 250
-251 -249
-251 -250
249 250 251
-252 13
-252 -147
-13 147 252
-253 -13
-253 25
13 -25 253
-254 -252
-254 -253
252 253 254
-255 13
-255 -156
-13 156 255
-256 -13
-256 26
13 -26 256
-257 -255
-257 -256
255 256 257
-258 13
-258 -165
-13 165 258
-259 -13
-259 27
13 -27 259
-260 -258
-260 -259
258 259 260
-261 13
-261 -174
-13 174 261
-262 -13
-262 28
13 -28 262
-263 -261
-263 -262
261 262 263
-264 13
-264 -183
-13 183 264
-265 -13
-265 29
13 -29 265
-266 -264
-266 -265
264 265 266
-267 13
-267 -192
-13 192 267
-268 -13
-268 30
13 -30 268
-269 -267
-269 -268
267 268 269
-270 13
-270 -201
-13 201 270
-271 -13
-271 31
13 -31 271
-272 -270
-272 -271
270 271 272
-273 13
-273 -210
-13 210 273
-274 -13
-274 32
13 -32 274
-275 -273
-275 -274
273 274 275
-276 13
-276 -219
-13 219 276
-277 1
-277 50
-1 -50 277
-278 -50
-278 51
50 -51 278
-279 -277
-279 -278
277 278 279
-280 2
-280 50
-2 -50 280
-281 -50
-281 -224
50 224 281
-282 -280
-282 -281
280 281 282
-283 3
-283 50
-3 -50 283
-284 -50
-284 -227
50 227 284
-285 -283
-285 -284
283 284 285
-286 4
-286 50
-4 -50 286
-287 -50
-287 -230
50 230 287
-288 -286
-288 -287
286 287 288
-289 5
-289 50
-5 -50 289
-290 -50
-290 -233
50 233 290
-291 -289
-291 -290
289 290 291
-292 6
-292 50
-6 -50 292
-293 -50
-293 -236
50 236 293
-294 -292
-294 -293
292 293 294
-295 7
-295 50
-7 -50 295
-296 -50
-296 -239
50 239 296
-297 -295
-297 -296
295 296 297
-298 8
-298 50
-8 -50 298
-299 -50
-299 -242
50 242 299
-300 -298
-300 -299
298 299 300
-301 9
-301 50
-9 -50 301
-302 -50
-302 -245
50 245 302
-303 -301
-303 -302
301 302 303
-304 10
-304 50
-10 -50 304
-305 -50
-305 -248
50 248 305
-306 -304
-306 -305
304 305 306
-307 11
-307 50
-11 -50 307
-308 -50
-308 -251
50 251 308
-309 -307
-309 -308
307 308 309
-310 12
-310 50
-12 -50 310
-311 -50
-311 -254
50 254 311
-312 -310
-312 -311
310 311 312
-313 -50
-313 -257
50 257 313
-314 -50
-314 -260
50 260 314
-315 -50
-315 -263
50 263 315
-316 -50
-316 -266
50 266 316
-317 -50
-317 -269
50 269 317
-318 -50
-318 -272
50 272 318
-319 -50
-319 -275
50 275 319
-320 -50
-320 276
50 -276 320
-321 -32
-321 221
32 -221 321
-322 13
-322 -321
-13 321 322
322
